min: 120 x1 + 345 x2 + 942 x3 + 613 x4 + 402 x5 + 285 x6 + 843 x7 + 753 x8 + 493 x9 + 358 x10 + 831 x11 + 166 x12 + 96 x13 + 513 x14 + 559 x15 + 931 x16 + 263 x17 + 432 x18 + 341 x19 + 326 x20 + 215 x21 + 165 x22 + 125 x23 + 491 x24 + 759 x25 + 414 x26 + 999 x27 + 438 x28 + 908 x29 + 432 x30 + 293 x31 + 21 x32 + 718 x33 + 412 x34 + 300 x35 + 738 x36 + 818 x37 + 528 x38 + 111 x39 + 647 x40 + 877 x41 + 70 x42 + 19 x43 + 642 x44 + 227 x45;

r1: x21 + x37 + x2 >= 1;
r2: x10 + x14 + x35 + x3 + x22 >= 1;
r3: x20 + x23 + x25 >= 1;
r4: x11 + x45 + x16 + x9 + x19 + x40 + x22 >= 1;
r5: x6 >= 1;
r6: x15 + x26 + x29 + x30 + x22 + x43 + x27 >= 1;
r7: x27 + x28 + x44 >= 1;
r8: x39 + x27 + x31 + x1 + x14 >= 1;
r9: x35 + x1 + x30 + x13 + x43 >= 1;
r10: x26 + x25 + x20 + x9 >= 1;
r11: x38 + x39 + x21 + x40 >= 1;
r12: x10 >= 1;
r13: x16 + x40 + x7 + x36 + x2 + x44 + x34 >= 1;
r14: x24 + x29 + x10 + x4 + x2 + x40 >= 1;
r15: x5 >= 1;
r16: x35 + x5 + x36 + x29 + x28 + x25 + x42 + x32 >= 1;
r17: x36 + x40 + x2 + x10 + x34 + x6 >= 1;
r18: x24 + x36 + x26 + x16 >= 1;
r19: x13 + x35 + x31 + x4 + x6 + x33 >= 1;
r20: x25 + x32 + x17 + x39 + x20 + x24 >= 1;
r21: x28 + x3 >= 1;
r22: x9 >= 1;
r23: x30 + x5 + x10 + x38 + x16 >= 1;
r24: x44 + x34 + x38 + x24 + x3 >= 1;
r25: x5 >= 1;
r26: x28 + x36 + x32 >= 1;
r27: x42 + x16 + x26 + x28 + x18 >= 1;
r28: x37 >= 1;
r29: x33 + x44 + x42 >= 1;
r30: x4 + x36 + x11 + x25 + x30 + x7 + x19 + x31 >= 1;
r31: x11 + x7 >= 1;
r32: x26 + x44 + x28 >= 1;
r33: x41 >= 1;
r34: x16 + x10 + x7 >= 1;
r35: x15 + x12 >= 1;
r36: x41 + x30 + x17 + x36 + x14 >= 1;
r37: x44 + x15 + x7 + x11 + x25 + x42 + x34 + x43 >= 1;
r38: x38 + x15 >= 1;
r39: x21 + x11 + x24 + x35 + x43 + x16 + x13 >= 1;
r40: x30 + x28 >= 1;
r41: x21 + x12 >= 1;
r42: x22 + x27 + x12 >= 1;
r43: x6 + x44 + x34 + x29 + x16 >= 1;
r44: x34 + x21 >= 1;
r45: x10 + x37 + x40 + x2 + x24 + x27 >= 1;
r46: x7 + x12 + x15 + x8 + x30 + x36 + x5 >= 1;
r47: x38 >= 1;
r48: x34 >= 1;
r49: x33 + x6 + x27 + x30 >= 1;
r50: x8 + x7 + x5 >= 1;
r51: x43 + x37 + x23 + x42 + x28 + x15 + x4 + x11 >= 1;
r52: x23 + x33 + x27 + x36 + x7 >= 1;
r53: x37 + x12 + x9 + x40 + x26 + x1 >= 1;
r54: x27 >= 1;
r55: x8 >= 1;
r56: x44 + x42 + x2 + x38 + x8 + x41 + x33 >= 1;
r57: x15 + x23 + x34 >= 1;
r58: x14 >= 1;
r59: x19 + x39 + x6 + x35 + x14 >= 1;
r60: x38 + x14 + x16 + x41 + x4 + x9 + x34 >= 1;
r61: x13 + x18 >= 1;
r62: x4 + x42 + x18 >= 1;
r63: x23 + x32 + x42 >= 1;
r64: x28 + x31 + x45 + x32 + x41 + x27 + x16 >= 1;
r65: x33 + x35 + x13 + x17 + x37 + x25 + x4 + x20 >= 1;
r66: x5 + x24 + x11 + x19 + x6 >= 1;
r67: x15 + x31 + x21 + x26 + x6 >= 1;
r68: x42 + x4 + x24 + x1 + x43 + x31 + x5 + x36 >= 1;
r69: x34 + x30 + x45 >= 1;
r70: x15 + x10 + x28 + x16 + x33 + x12 >= 1;
r71: x21 + x7 + x35 + x30 + x41 >= 1;
r72: x38 + x22 + x12 + x4 + x32 + x9 + x6 + x5 >= 1;
r73: x38 + x11 + x1 + x44 + x2 >= 1;
r74: x6 + x33 + x34 >= 1;
r75: x5 + x3 + x33 + x43 + x19 >= 1;
r76: x39 + x37 + x12 + x14 + x18 + x21 >= 1;
r77: x1 + x41 + x34 + x11 + x38 + x9 + x18 + x16 >= 1;
r78: x16 + x2 + x25 + x27 + x10 >= 1;
r79: x4 + x37 + x30 + x19 >= 1;
r80: x41 + x4 + x25 >= 1;
r81: x31 + x12 + x4 + x38 + x13 >= 1;
r82: x28 + x45 + x38 + x15 + x5 + x37 >= 1;
r83: x39 + x40 + x9 + x37 + x30 >= 1;
r84: x17 + x26 + x10 + x20 + x44 + x41 + x3 + x25 >= 1;
r85: x24 + x4 + x13 + x2 + x31 + x21 >= 1;
r86: x40 + x41 + x26 + x22 + x5 + x10 + x45 >= 1;
r87: x32 + x34 >= 1;
r88: x6 + x24 + x2 >= 1;
r89: x12 >= 1;
r90: x29 >= 1;
r91: x4 + x11 + x24 + x44 + x6 + x13 + x20 >= 1;
r92: x20 + x35 + x29 >= 1;
r93: x30 + x31 + x10 >= 1;
r94: x5 >= 1;
r95: x3 + x17 + x18 >= 1;
r96: x16 >= 1;
r97: x42 + x28 + x24 + x39 + x12 >= 1;
r98: x5 + x20 + x9 + x43 >= 1;
r99: x3 + x17 + x11 >= 1;
r100: x36 + x43 + x17 + x2 >= 1;
r101: x44 + x31 + x26 + x19 + x21 + x16 + x13 + x11 >= 1;
r102: x4 + x8 + x27 + x15 + x41 + x10 + x17 >= 1;
r103: x25 >= 1;
r104: x40 >= 1;
r105: x30 + x43 + x31 + x4 + x32 + x13 + x28 + x44 >= 1;
r106: x2 + x44 + x8 + x31 + x4 + x33 + x23 + x9 >= 1;
r107: x26 + x1 + x41 + x19 + x18 + x34 >= 1;
r108: x14 + x13 + x22 + x26 + x15 + x3 + x29 + x34 >= 1;
r109: x5 + x32 + x22 >= 1;
r110: x23 + x25 + x34 + x40 + x13 >= 1;
r111: x17 + x30 >= 1;
r112: x15 + x30 + x12 >= 1;
r113: x24 + x39 + x41 + x35 + x32 + x14 >= 1;
r114: x14 + x19 + x39 + x28 + x25 + x38 + x21 + x31 >= 1;
r115: x21 + x4 >= 1;
r116: x6 + x15 + x23 + x32 + x14 + x31 + x1 >= 1;
r117: x9 + x33 + x12 + x32 + x14 + x24 + x13 >= 1;
r118: x2 + x33 + x41 + x13 >= 1;
r119: x40 + x31 >= 1;
r120: x38 + x13 >= 1;
r121: x40 + x43 + x25 + x16 + x11 + x42 + x3 + x31 >= 1;
r122: x22 >= 1;
r123: x15 + x16 + x42 + x30 >= 1;
r124: x40 + x36 >= 1;
r125: x32 + x45 + x18 + x41 + x33 + x14 >= 1;
r126: x8 + x39 + x24 + x6 + x35 + x1 + x36 + x34 >= 1;
r127: x1 + x28 + x25 + x11 + x17 + x34 >= 1;
r128: x6 + x36 + x3 + x31 >= 1;
r129: x35 + x12 + x15 + x22 + x3 + x27 + x24 >= 1;
r130: x3 + x23 + x41 + x14 >= 1;
r131: x36 + x30 >= 1;
r132: x35 + x30 + x21 + x27 + x10 >= 1;
r133: x3 + x21 + x27 >= 1;
r134: x18 >= 1;
r135: x16 + x31 + x4 + x40 + x7 + x1 >= 1;
r136: x13 + x29 + x24 >= 1;
r137: x33 >= 1;
r138: x28 + x14 >= 1;
r139: x11 >= 1;
r140: x13 >= 1;
r141: x9 + x37 + x44 + x28 + x4 + x13 + x30 + x1 >= 1;
r142: x24 + x25 + x28 + x15 + x39 + x18 + x38 + x41 >= 1;
r143: x27 + x3 + x4 + x23 + x28 >= 1;
r144: x36 + x15 + x40 + x44 + x2 + x18 + x38 >= 1;
r145: x7 + x33 + x38 + x17 + x5 + x23 >= 1;
r146: x17 + x38 + x45 + x39 + x4 >= 1;
r147: x3 + x31 + x9 + x30 >= 1;
r148: x12 + x1 + x16 + x14 + x38 + x24 >= 1;
r149: x13 + x5 + x39 + x28 >= 1;
r150: x20 + x18 >= 1;
r151: x5 + x19 >= 1;
r152: x34 + x19 + x10 + x29 + x6 + x7 >= 1;
r153: x9 + x7 + x10 + x1 >= 1;
r154: x43 + x41 + x31 + x15 + x44 + x37 >= 1;
r155: x45 + x3 + x1 + x43 + x5 + x18 >= 1;
r156: x44 >= 1;
r157: x22 + x21 + x13 >= 1;
r158: x22 + x33 + x39 + x17 + x12 + x28 + x3 + x14 >= 1;
r159: x1 + x11 + x35 >= 1;
r160: x14 + x2 + x16 + x42 >= 1;
r161: x19 + x30 + x24 + x36 + x29 + x3 + x12 + x2 >= 1;
r162: x18 + x5 + x42 + x6 + x8 + x20 + x45 >= 1;
r163: x24 >= 1;
r164: x41 + x6 + x21 + x26 + x37 >= 1;
r165: x23 + x8 + x16 + x39 + x34 + x29 + x37 >= 1;
r166: x31 + x38 >= 1;
r167: x15 + x29 + x45 + x13 + x31 + x12 + x33 >= 1;
r168: x43 + x21 + x2 + x5 + x38 + x1 >= 1;
r169: x20 + x15 + x41 + x11 + x30 >= 1;
r170: x13 + x43 + x27 + x24 >= 1;
r171: x24 + x10 + x3 + x6 >= 1;
r172: x8 + x28 >= 1;
r173: x44 + x16 + x40 + x43 >= 1;
r174: x42 + x16 + x26 + x11 >= 1;
r175: x31 + x38 >= 1;
r176: x23 + x35 + x24 + x25 + x22 >= 1;
r177: x12 + x21 + x24 + x19 >= 1;
r178: x16 + x8 + x18 + x28 >= 1;
r179: x24 + x3 + x20 + x32 + x12 >= 1;
r180: x16 + x35 + x34 + x19 + x38 >= 1;
r181: x45 + x17 + x10 + x11 + x8 >= 1;
r182: x29 + x43 + x13 + x36 + x3 + x32 >= 1;
r183: x10 >= 1;
r184: x32 + x15 + x21 + x16 + x42 + x44 + x37 >= 1;
r185: x14 + x30 + x36 >= 1;
r186: x45 + x37 + x41 + x13 + x15 + x44 + x18 >= 1;
r187: x21 + x28 + x7 >= 1;
r188: x36 + x26 + x45 + x1 + x39 >= 1;
r189: x41 + x18 + x20 + x29 + x7 + x8 >= 1;
r190: x40 + x36 + x17 + x11 + x10 + x2 + x35 + x4 >= 1;
r191: x17 + x14 + x25 + x9 + x2 + x36 + x7 + x15 >= 1;
r192: x30 + x40 + x23 + x5 + x8 + x28 + x27 >= 1;
r193: x33 + x15 >= 1;
r194: x22 + x5 + x24 + x10 + x2 >= 1;
r195: x15 + x36 >= 1;
r196: x44 + x42 + x43 + x37 + x45 + x9 >= 1;
r197: x1 + x21 + x18 + x10 + x14 + x16 >= 1;
r198: x33 + x27 + x10 + x7 + x44 >= 1;
r199: x21 >= 1;
r200: x16 + x44 + x15 + x20 >= 1;
r201: x8 + x7 + x44 + x13 + x19 + x3 + x17 + x14 >= 1;
r202: x4 + x44 + x20 + x12 + x5 + x7 >= 1;
r203: x23 + x15 + x37 + x9 + x2 + x24 >= 1;
r204: x11 + x20 + x29 >= 1;
r205: x15 + x23 >= 1;
r206: x12 >= 1;
r207: x22 + x29 >= 1;
r208: x36 + x16 + x30 + x17 + x42 + x21 + x27 + x38 >= 1;
r209: x5 + x35 + x21 + x18 + x39 >= 1;
r210: x20 + x22 + x16 + x31 + x17 + x15 >= 1;
r211: x1 + x20 + x18 + x33 + x17 + x42 + x3 >= 1;
r212: x11 + x40 + x12 + x1 + x34 + x8 + x30 + x41 >= 1;
r213: x6 + x9 + x26 + x36 + x1 + x3 + x44 + x16 >= 1;
r214: x2 + x44 + x3 + x31 + x19 + x6 + x4 + x39 >= 1;
r215: x37 + x42 + x10 + x20 >= 1;
r216: x42 + x13 + x22 >= 1;
r217: x4 + x1 + x44 + x29 + x26 + x18 + x14 >= 1;
r218: x12 + x6 + x14 + x35 + x1 + x10 >= 1;
r219: x2 + x38 + x36 + x10 + x35 + x15 >= 1;
r220: x10 + x29 + x38 + x18 + x44 >= 1;
r221: x32 + x41 + x13 + x27 + x19 + x17 + x40 + x42 >= 1;
r222: x43 + x10 + x21 + x7 + x33 >= 1;
r223: x38 + x20 + x23 + x44 >= 1;
r224: x28 + x25 + x45 + x35 + x3 >= 1;
r225: x7 + x40 + x10 >= 1;
r226: x7 + x35 + x44 + x11 + x42 + x26 + x21 >= 1;
r227: x36 >= 1;
r228: x16 + x24 + x10 + x1 + x13 + x44 + x6 + x41 >= 1;
r229: x25 + x29 + x6 + x41 + x26 + x8 + x3 >= 1;
r230: x22 >= 1;
r231: x41 + x13 + x39 + x42 >= 1;
r232: x11 + x3 + x45 + x39 + x36 + x32 + x9 + x43 >= 1;
r233: x9 + x23 + x33 + x19 + x1 >= 1;
r234: x4 + x33 + x16 + x42 + x34 + x25 >= 1;
r235: x16 + x13 + x22 + x37 + x40 + x18 + x11 + x41 >= 1;
r236: x17 + x8 + x35 + x20 + x30 + x31 + x7 >= 1;
r237: x7 + x13 + x16 + x21 + x44 + x28 + x25 >= 1;
r238: x14 + x1 + x39 + x43 + x41 + x22 + x33 >= 1;
r239: x31 + x10 + x44 + x29 + x16 + x17 >= 1;
r240: x2 + x4 + x27 + x31 + x40 + x28 + x22 >= 1;
r241: x33 + x27 + x7 + x23 + x1 >= 1;
r242: x23 + x45 + x41 >= 1;
r243: x39 + x34 >= 1;
r244: x12 + x45 >= 1;
r245: x1 + x18 + x9 >= 1;
r246: x43 >= 1;
r247: x25 + x41 >= 1;
r248: x7 + x9 + x21 + x36 >= 1;
r249: x17 + x28 + x29 + x32 + x16 + x39 >= 1;
r250: x15 + x21 + x45 + x24 + x17 + x11 + x2 + x43 >= 1;
r251: x1 + x8 >= 1;
r252: x13 + x15 + x37 + x34 + x11 >= 1;
r253: x8 >= 1;
r254: x38 + x41 + x34 + x25 + x30 >= 1;
r255: x3 + x31 + x18 + x19 + x6 >= 1;
r256: x25 >= 1;
r257: x25 >= 1;
r258: x43 + x6 + x19 + x44 + x30 + x13 + x29 >= 1;
r259: x9 >= 1;
r260: x1 + x39 + x33 + x24 + x2 + x28 >= 1;
r261: x33 + x25 + x29 + x14 >= 1;
r262: x28 + x17 + x8 + x7 + x10 + x41 + x36 + x38 >= 1;
r263: x14 + x16 + x13 >= 1;
r264: x32 + x45 + x39 >= 1;
r265: x25 + x36 + x4 >= 1;
r266: x34 + x7 + x23 + x25 + x9 + x32 + x42 >= 1;
r267: x18 + x26 >= 1;
r268: x35 + x19 >= 1;
r269: x5 >= 1;
r270: x34 + x27 + x17 + x45 + x37 >= 1;
r271: x37 + x38 + x22 + x10 >= 1;
r272: x42 + x37 >= 1;
r273: x17 >= 1;
r274: x40 + x6 >= 1;
r275: x39 + x34 + x26 + x29 + x15 + x41 + x40 + x14 >= 1;
r276: x13 >= 1;
r277: x45 + x29 + x31 + x32 + x44 + x15 + x9 + x14 >= 1;
r278: x43 + x17 + x26 + x22 + x28 + x42 + x7 >= 1;
r279: x27 + x2 + x25 >= 1;
r280: x1 + x9 + x30 + x29 + x34 + x36 + x7 >= 1;
r281: x8 + x26 + x10 + x43 >= 1;
r282: x43 + x14 + x22 + x29 + x45 + x23 + x2 + x37 >= 1;
r283: x4 + x40 + x13 + x12 + x41 + x37 + x18 + x29 >= 1;
r284: x19 + x9 + x29 + x35 + x18 >= 1;
r285: x37 + x23 >= 1;
r286: x6 + x34 >= 1;
r287: x2 + x8 >= 1;
r288: x9 + x10 >= 1;
r289: x15 + x1 + x42 >= 1;
r290: x42 + x24 + x22 + x29 + x26 + x35 + x36 + x28 >= 1;
r291: x33 + x19 + x6 + x1 + x18 + x3 + x31 >= 1;
r292: x2 + x1 + x39 >= 1;
r293: x26 + x33 + x1 + x43 + x21 + x16 + x22 + x37 >= 1;
r294: x20 >= 1;
r295: x40 + x14 + x5 + x18 + x3 + x31 + x44 >= 1;
r296: x5 + x44 + x25 >= 1;
r297: x2 + x34 >= 1;
r298: x37 + x43 + x17 + x35 + x11 + x9 + x18 + x30 >= 1;
r299: x24 + x34 + x1 + x3 + x45 + x22 + x44 >= 1;
r300: x23 + x19 + x21 + x30 + x32 + x35 + x27 + x8 >= 1;
r301: x23 + x7 + x35 + x17 + x44 + x22 + x36 >= 1;
r302: x35 + x45 + x23 + x20 >= 1;
r303: x2 + x12 >= 1;
r304: x28 + x26 + x6 + x12 + x16 + x20 + x43 >= 1;
r305: x24 + x33 + x28 + x36 + x32 >= 1;
r306: x6 + x40 >= 1;
r307: x22 + x15 + x6 + x25 + x3 + x35 + x2 >= 1;
r308: x1 + x6 >= 1;
r309: x18 + x41 >= 1;
r310: x15 + x44 + x36 + x20 + x26 >= 1;
r311: x36 + x18 + x15 + x39 + x44 + x7 + x24 + x10 >= 1;
r312: x37 + x18 + x33 + x17 + x7 + x1 >= 1;
r313: x25 + x32 + x42 + x24 + x22 + x16 + x36 + x5 >= 1;
r314: x1 + x31 >= 1;
r315: x4 + x18 + x24 + x2 + x10 >= 1;
r316: x3 + x5 + x43 + x23 + x42 >= 1;
r317: x5 + x9 + x43 + x28 + x24 >= 1;
r318: x19 + x14 + x2 + x39 >= 1;
r319: x4 + x12 + x44 + x14 + x42 >= 1;
r320: x5 + x2 + x34 + x15 >= 1;
r321: x8 + x5 + x22 >= 1;
r322: x10 >= 1;
r323: x15 + x44 + x33 >= 1;
r324: x23 + x42 + x30 + x12 + x21 + x37 + x34 >= 1;
r325: x35 + x42 + x34 + x28 + x18 + x13 >= 1;
r326: x9 + x20 + x40 + x43 + x5 >= 1;
r327: x6 + x44 >= 1;
r328: x1 >= 1;
r329: x37 + x33 + x45 + x5 + x13 + x8 >= 1;
r330: x30 + x7 + x8 + x1 + x23 + x21 + x40 + x36 >= 1;
r331: x10 + x4 + x23 + x18 >= 1;
r332: x42 + x38 >= 1;
r333: x35 >= 1;
r334: x20 + x17 + x7 + x45 + x22 + x33 >= 1;
r335: x23 >= 1;
r336: x38 + x3 + x33 + x45 + x5 + x22 + x25 + x8 >= 1;
r337: x26 + x6 + x23 >= 1;
r338: x39 + x33 + x5 + x6 >= 1;
r339: x35 + x8 + x31 + x40 + x25 >= 1;
r340: x34 + x38 + x16 + x23 + x12 + x19 + x2 + x32 >= 1;
r341: x33 >= 1;
r342: x5 + x39 + x18 >= 1;
r343: x33 + x17 + x42 + x38 + x9 + x24 >= 1;
r344: x38 + x14 + x28 >= 1;
r345: x44 + x33 + x19 + x42 + x3 + x12 >= 1;
r346: x45 + x11 + x41 + x15 >= 1;
r347: x34 + x37 + x30 + x2 + x11 >= 1;
r348: x13 + x11 + x45 + x6 + x12 + x25 + x44 + x34 >= 1;
r349: x42 + x12 + x41 >= 1;
r350: x36 + x2 >= 1;
r351: x34 + x29 + x9 + x21 >= 1;
r352: x15 + x16 + x3 + x17 + x1 + x37 >= 1;
r353: x36 + x12 + x37 >= 1;
r354: x14 + x18 + x40 + x35 + x7 + x4 + x39 + x27 >= 1;
r355: x19 + x24 >= 1;
r356: x38 >= 1;
r357: x34 + x17 + x31 + x8 + x11 + x41 + x37 >= 1;
r358: x26 + x15 + x25 >= 1;
r359: x7 + x12 + x26 + x22 >= 1;
r360: x10 + x1 + x37 + x25 + x18 >= 1;
r361: x11 + x20 + x13 + x8 + x16 + x38 + x42 >= 1;
r362: x22 + x39 + x45 + x19 + x11 + x16 + x13 >= 1;
r363: x35 >= 1;
r364: x25 + x30 + x3 + x36 + x40 + x5 + x43 + x15 >= 1;
r365: x8 + x32 + x21 + x3 + x27 + x45 >= 1;
r366: x13 >= 1;
r367: x5 >= 1;
r368: x31 >= 1;
r369: x41 + x1 + x32 + x43 + x25 + x5 + x18 >= 1;
r370: x2 + x15 + x8 >= 1;
r371: x10 + x39 + x41 + x42 + x17 >= 1;
r372: x45 + x16 + x19 + x21 + x27 + x40 >= 1;
r373: x14 + x30 + x11 + x25 >= 1;
r374: x28 + x20 + x30 + x39 >= 1;
r375: x44 + x30 + x19 + x41 + x16 >= 1;
r376: x42 + x26 + x33 + x19 + x38 + x23 + x3 >= 1;
r377: x34 + x2 >= 1;
r378: x15 + x9 + x29 + x31 + x20 + x13 >= 1;
r379: x37 >= 1;
r380: x11 + x16 + x28 + x24 + x18 + x26 >= 1;
r381: x25 + x34 + x11 + x41 + x18 + x15 >= 1;
r382: x27 >= 1;
r383: x32 + x21 + x14 + x27 + x28 + x29 + x31 >= 1;
r384: x28 + x13 + x4 + x30 + x25 + x38 + x14 + x11 >= 1;
r385: x23 + x13 + x14 + x15 + x2 + x41 + x7 + x19 >= 1;
r386: x8 + x23 + x40 >= 1;
r387: x32 >= 1;
r388: x8 + x2 + x33 + x12 + x43 + x19 + x44 >= 1;
r389: x4 + x35 >= 1;
r390: x42 + x23 >= 1;
r391: x33 + x20 + x35 + x43 + x21 + x17 >= 1;
r392: x8 + x4 + x10 >= 1;
r393: x39 >= 1;
r394: x36 >= 1;
r395: x11 + x45 + x17 >= 1;
r396: x4 + x2 + x27 + x37 + x41 + x18 + x30 + x44 >= 1;
r397: x36 + x3 >= 1;
r398: x25 + x4 + x21 + x22 + x3 >= 1;
r399: x15 + x16 + x31 + x26 >= 1;
r400: x22 + x29 + x7 + x31 >= 1;

bin x1, x2, x3, x4, x5, x6, x7, x8, x9, x10, x11, x12, x13, x14, x15, x16, x17, x18, x19, x20, x21, x22, x23, x24, x25, x26, x27, x28, x29, x30, x31, x32, x33, x34, x35, x36, x37, x38, x39, x40, x41, x42, x43, x44, x45;
